c colouring generated by benchmark framework
p edge 783 3890
v 1 5
v 2 1
v 3 1
v 4 1
v 5 3
v 6 3
v 7 2
v 8 5
v 9 0
v 10 4
v 11 4
v 12 1
v 13 5
v 14 1
v 15 3
v 16 0
v 17 1
v 18 2
v 19 4
v 20 4
v 21 4
v 22 0
v 23 0
v 24 2
v 25 2
v 26 2
v 27 0
v 28 2
v 29 0
v 30 3
v 31 1
v 32 0
v 33 2
v 34 2
v 35 5
v 36 0
v 37 4
v 38 3
v 39 3
v 40 5
v 41 1
v 42 4
v 43 1
v 44 3
v 45 1
v 46 1
v 47 0
v 48 0
v 49 0
v 50 2
v 51 1
v 52 5
v 53 1
v 54 0
v 55 1
v 56 2
v 57 2
v 58 4
v 59 3
v 60 5
v 61 3
v 62 2
v 63 4
v 64 4
v 65 4
v 66 4
v 67 1
v 68 1
v 69 2
v 70 3
v 71 0
v 72 0
v 73 3
v 74 4
v 75 0
v 76 4
v 77 1
v 78 3
v 79 0
v 80 1
v 81 2
v 82 0
v 83 0
v 84 0
v 85 4
v 86 5
v 87 4
v 88 2
v 89 1
v 90 4
v 91 2
v 92 1
v 93 2
v 94 1
v 95 3
v 96 2
v 97 3
v 98 2
v 99 4
v 100 2
v 101 2
v 102 5
v 103 5
v 104 5
v 105 5
v 106 2
v 107 0
v 108 4
v 109 0
v 110 3
v 111 1
v 112 3
v 113 5
v 114 2
v 115 0
v 116 2
v 117 2
v 118 5
v 119 1
v 120 2
v 121 3
v 122 0
v 123 1
v 124 5
v 125 3
v 126 5
v 127 4
v 128 4
v 129 5
v 130 0
v 131 4
v 132 3
v 133 2
v 134 1
v 135 3
v 136 0
v 137 2
v 138 1
v 139 2
v 140 4
v 141 2
v 142 2
v 143 2
v 144 5
v 145 2
v 146 1
v 147 1
v 148 1
v 149 0
v 150 3
v 151 0
v 152 1
v 153 3
v 154 0
v 155 2
v 156 1
v 157 0
v 158 4
v 159 1
v 160 0
v 161 1
v 162 5
v 163 0
v 164 1
v 165 2
v 166 5
v 167 2
v 168 4
v 169 3
v 170 0
v 171 3
v 172 1
v 173 2
v 174 2
v 175 0
v 176 0
v 177 1
v 178 3
v 179 1
v 180 3
v 181 2
v 182 0
v 183 0
v 184 2
v 185 5
v 186 3
v 187 5
v 188 0
v 189 1
v 190 2
v 191 3
v 192 1
v 193 4
v 194 0
v 195 2
v 196 5
v 197 2
v 198 3
v 199 0
v 200 2
v 201 1
v 202 3
v 203 0
v 204 4
v 205 3
v 206 2
v 207 1
v 208 0
v 209 2
v 210 2
v 211 2
v 212 1
v 213 3
v 214 3
v 215 4
v 216 0
v 217 3
v 218 5
v 219 5
v 220 5
v 221 4
v 222 4
v 223 3
v 224 2
v 225 2
v 226 1
v 227 0
v 228 2
v 229 4
v 230 0
v 231 5
v 232 2
v 233 1
v 234 2
v 235 3
v 236 2
v 237 0
v 238 0
v 239 2
v 240 1
v 241 0
v 242 0
v 243 2
v 244 4
v 245 0
v 246 2
v 247 5
v 248 5
v 249 2
v 250 5
v 251 4
v 252 4
v 253 5
v 254 0
v 255 4
v 256 5
v 257 1
v 258 3
v 259 4
v 260 0
v 261 0
v 262 1
v 263 0
v 264 4
v 265 5
v 266 0
v 267 2
v 268 5
v 269 3
v 270 4
v 271 4
v 272 0
v 273 1
v 274 2
v 275 5
v 276 2
v 277 1
v 278 4
v 279 2
v 280 3
v 281 4
v 282 4
v 283 0
v 284 3
v 285 4
v 286 0
v 287 2
v 288 0
v 289 3
v 290 4
v 291 3
v 292 1
v 293 4
v 294 1
v 295 5
v 296 4
v 297 2
v 298 3
v 299 5
v 300 4
v 301 5
v 302 1
v 303 0
v 304 0
v 305 1
v 306 0
v 307 0
v 308 1
v 309 1
v 310 4
v 311 1
v 312 1
v 313 2
v 314 1
v 315 3
v 316 0
v 317 2
v 318 1
v 319 0
v 320 5
v 321 0
v 322 4
v 323 4
v 324 3
v 325 4
v 326 1
v 327 0
v 328 2
v 329 0
v 330 5
v 331 0
v 332 3
v 333 0
v 334 2
v 335 1
v 336 4
v 337 2
v 338 2
v 339 4
v 340 0
v 341 3
v 342 0
v 343 4
v 344 1
v 345 0
v 346 3
v 347 0
v 348 0
v 349 1
v 350 2
v 351 5
v 352 1
v 353 2
v 354 2
v 355 2
v 356 2
v 357 1
v 358 4
v 359 2
v 360 1
v 361 3
v 362 5
v 363 2
v 364 1
v 365 2
v 366 1
v 367 2
v 368 4
v 369 0
v 370 4
v 371 3
v 372 4
v 373 5
v 374 4
v 375 5
v 376 3
v 377 4
v 378 3
v 379 2
v 380 1
v 381 0
v 382 0
v 383 2
v 384 2
v 385 1
v 386 0
v 387 2
v 388 1
v 389 1
v 390 2
v 391 0
v 392 0
v 393 2
v 394 2
v 395 3
v 396 5
v 397 5
v 398 0
v 399 3
v 400 4
v 401 0
v 402 0
v 403 1
v 404 3
v 405 2
v 406 4
v 407 3
v 408 4
v 409 0
v 410 4
v 411 5
v 412 1
v 413 2
v 414 3
v 415 5
v 416 0
v 417 2
v 418 2
v 419 3
v 420 5
v 421 1
v 422 5
v 423 5
v 424 0
v 425 0
v 426 3
v 427 2
v 428 5
v 429 5
v 430 1
v 431 0
v 432 0
v 433 1
v 434 1
v 435 0
v 436 2
v 437 3
v 438 1
v 439 1
v 440 3
v 441 0
v 442 4
v 443 1
v 444 5
v 445 0
v 446 2
v 447 2
v 448 0
v 449 4
v 450 5
v 451 4
v 452 5
v 453 0
v 454 3
v 455 2
v 456 1
v 457 3
v 458 1
v 459 4
v 460 0
v 461 3
v 462 4
v 463 1
v 464 0
v 465 1
v 466 2
v 467 2
v 468 0
v 469 2
v 470 0
v 471 1
v 472 0
v 473 0
v 474 2
v 475 5
v 476 1
v 477 0
v 478 2
v 479 0
v 480 0
v 481 3
v 482 3
v 483 4
v 484 2
v 485 2
v 486 3
v 487 1
v 488 2
v 489 0
v 490 0
v 491 1
v 492 4
v 493 3
v 494 1
v 495 2
v 496 1
v 497 2
v 498 0
v 499 3
v 500 2
v 501 5
v 502 0
v 503 5
v 504 3
v 505 5
v 506 0
v 507 5
v 508 2
v 509 0
v 510 0
v 511 0
v 512 1
v 513 4
v 514 1
v 515 1
v 516 0
v 517 5
v 518 3
v 519 3
v 520 2
v 521 1
v 522 1
v 523 2
v 524 0
v 525 3
v 526 1
v 527 1
v 528 4
v 529 1
v 530 1
v 531 0
v 532 1
v 533 1
v 534 2
v 535 4
v 536 3
v 537 1
v 538 2
v 539 1
v 540 5
v 541 5
v 542 2
v 543 3
v 544 2
v 545 2
v 546 3
v 547 0
v 548 2
v 549 3
v 550 3
v 551 5
v 552 1
v 553 1
v 554 1
v 555 1
v 556 4
v 557 3
v 558 1
v 559 2
v 560 0
v 561 3
v 562 3
v 563 5
v 564 3
v 565 1
v 566 5
v 567 1
v 568 2
v 569 2
v 570 3
v 571 0
v 572 0
v 573 1
v 574 1
v 575 0
v 576 2
v 577 1
v 578 4
v 579 3
v 580 3
v 581 0
v 582 3
v 583 1
v 584 2
v 585 5
v 586 0
v 587 3
v 588 0
v 589 4
v 590 2
v 591 0
v 592 1
v 593 5
v 594 0
v 595 0
v 596 5
v 597 3
v 598 3
v 599 1
v 600 1
v 601 2
v 602 3
v 603 2
v 604 4
v 605 4
v 606 2
v 607 2
v 608 4
v 609 2
v 610 2
v 611 3
v 612 1
v 613 3
v 614 2
v 615 4
v 616 0
v 617 1
v 618 5
v 619 4
v 620 0
v 621 0
v 622 0
v 623 2
v 624 4
v 625 3
v 626 4
v 627 5
v 628 2
v 629 5
v 630 4
v 631 0
v 632 3
v 633 5
v 634 1
v 635 4
v 636 4
v 637 5
v 638 0
v 639 2
v 640 1
v 641 2
v 642 0
v 643 0
v 644 5
v 645 2
v 646 1
v 647 2
v 648 2
v 649 0
v 650 0
v 651 0
v 652 2
v 653 1
v 654 0
v 655 4
v 656 0
v 657 2
v 658 3
v 659 2
v 660 2
v 661 1
v 662 0
v 663 5
v 664 5
v 665 1
v 666 5
v 667 3
v 668 2
v 669 0
v 670 1
v 671 0
v 672 1
v 673 2
v 674 1
v 675 5
v 676 0
v 677 1
v 678 3
v 679 5
v 680 4
v 681 5
v 682 1
v 683 4
v 684 1
v 685 1
v 686 0
v 687 1
v 688 1
v 689 5
v 690 4
v 691 3
v 692 0
v 693 1
v 694 2
v 695 0
v 696 2
v 697 1
v 698 5
v 699 2
v 700 0
v 701 2
v 702 4
v 703 5
v 704 0
v 705 2
v 706 3
v 707 3
v 708 1
v 709 5
v 710 0
v 711 4
v 712 2
v 713 2
v 714 2
v 715 1
v 716 1
v 717 0
v 718 5
v 719 5
v 720 3
v 721 1
v 722 4
v 723 4
v 724 3
v 725 0
v 726 3
v 727 1
v 728 4
v 729 5
v 730 4
v 731 2
v 732 4
v 733 0
v 734 4
v 735 2
v 736 1
v 737 3
v 738 1
v 739 1
v 740 5
v 741 1
v 742 1
v 743 5
v 744 4
v 745 3
v 746 3
v 747 0
v 748 3
v 749 0
v 750 3
v 751 4
v 752 3
v 753 3
v 754 4
v 755 0
v 756 5
v 757 0
v 758 2
v 759 2
v 760 3
v 761 4
v 762 2
v 763 1
v 764 1
v 765 3
v 766 2
v 767 5
v 768 3
v 769 0
v 770 1
v 771 1
v 772 4
v 773 1
v 774 1
v 775 4
v 776 2
v 777 0
v 778 0
v 779 3
v 780 3
v 781 5
v 782 5
v 783 4
